
Gurobi 6.5.2 (linux64) logging started Tue Sep  6 10:06:20 2016

Optimize a model with 101 rows, 418 columns and 959 nonzeros
Coefficient statistics:
  Matrix range    [1e+00, 2e+00]
  Objective range [1e+00, 1e+02]
  Bounds range    [1e+00, 1e+00]
  RHS range       [1e+00, 1e+00]
Found heuristic solution: objective 2321
Presolve removed 36 rows and 10 columns
Presolve time: 0.00s
Presolved: 65 rows, 408 columns, 822 nonzeros
Variable types: 0 continuous, 408 integer (408 binary)

Root relaxation: objective 9.210000e+02, 68 iterations, 0.00 seconds

    Nodes    |    Current Node    |     Objective Bounds      |     Work
 Expl Unexpl |  Obj  Depth IntInf | Incumbent    BestBd   Gap | It/Node Time

     0     0  921.00000    0   10 2321.00000  921.00000  60.3%     -    0s
     0     0  934.00000    0    2 2321.00000  934.00000  59.8%     -    0s
     0     0  939.09091    0   23 2321.00000  939.09091  59.5%     -    0s
     0     0  939.10000    0   20 2321.00000  939.10000  59.5%     -    0s
     0     0  939.11111    0   20 2321.00000  939.11111  59.5%     -    0s
     0     0  939.11111    0   20 2321.00000  939.11111  59.5%     -    0s
     0     2  939.11111    0   20 2321.00000  939.11111  59.5%     -    0s
*   72    21               6     941.0000000  940.00000  0.11%   4.2    0s

Cutting planes:
  Gomory: 7
  Cover: 14
  MIR: 1
  Zero half: 1
  Lazy constraints: 30

Explored 96 nodes (475 simplex iterations) in 0.08 seconds
Thread count was 8 (of 8 available processors)

Optimal solution found (tolerance 1.00e-04)
Best objective 9.410000000000e+02, best bound 9.410000000000e+02, gap 0.0%
